c FILE			: sample.gr
c No. of vertices	: 30
c No. of directed edges	: 70
c Max. weight		: 100
c Min. weight		: 0
c A directed arc from u to v of weight w
c is represented below as ' a  u  v  w '
p sp 30 70
a 1 28 61
a 2 17 8
a 2 17 84
a 2 7 73
a 3 13 38
a 4 20 58
a 4 15 21
a 4 17 65
a 4 1 69
a 4 25 15
a 4 28 3
a 5 4 20
a 5 7 79
a 6 9 21
a 6 21 68
a 6 12 44
a 6 1 73
a 7 8 70
a 8 13 55
a 8 5 41
a 9 4 33
a 9 17 94
a 9 18 46
a 10 3 82
a 10 7 58
a 11 12 58
a 11 29 87
a 11 28 15
a 11 13 24
a 12 25 64
a 12 21 68
a 13 14 87
a 13 27 65
a 13 4 21
a 14 23 66
a 14 20 60
a 15 26 27
a 15 26 2
a 16 1 99
a 16 22 99
a 16 13 59
a 17 3 44
a 17 30 25
a 18 6 89
a 18 8 91
a 20 19 78
a 20 8 12
a 20 30 21
a 21 9 19
a 22 20 4
a 22 29 49
a 22 3 57
a 22 19 95
a 23 15 98
a 23 10 29
a 23 22 99
a 24 23 27
a 26 19 17
a 27 18 93
a 27 12 61
a 27 1 73
a 27 14 86
a 27 30 34
a 27 9 96
a 28 10 65
a 28 25 82
a 28 1 38
a 29 7 22
a 29 5 11
a 30 19 45
